
******************************************************************************
This program contains Ipopt, a library for large-scale nonlinear optimization.
 Ipopt is released as open source code under the Eclipse Public License (EPL).
         For more information visit http://projects.coin-or.org/Ipopt

This version of Ipopt was compiled from source code available at
    https://github.com/IDAES/Ipopt as part of the Institute for the Design of
    Advanced Energy Systems Process Systems Engineering Framework (IDAES PSE
    Framework) Copyright (c) 2018-2019. See https://github.com/IDAES/idaes-pse.

This version of Ipopt was compiled using HSL, a collection of Fortran codes
    for large-scale scientific computation.  All technical papers, sales and
    publicity material resulting from use of the HSL codes within IPOPT must
    contain the following acknowledgement:
        HSL, a collection of Fortran codes for large-scale scientific
        computation. See http://www.hsl.rl.ac.uk.
******************************************************************************

This is Ipopt version 3.13.2, running with linear solver ma27.

Number of nonzeros in equality constraint Jacobian...:      808
Number of nonzeros in inequality constraint Jacobian.:        0
Number of nonzeros in Lagrangian Hessian.............:      702

Total number of variables............................:      351
                     variables with only lower bounds:      108
                variables with lower and upper bounds:      189
                     variables with only upper bounds:        0
Total number of equality constraints.................:      350
Total number of inequality constraints...............:        0
        inequality constraints with only lower bounds:        0
   inequality constraints with lower and upper bounds:        0
        inequality constraints with only upper bounds:        0

iter    objective    inf_pr   inf_du lg(mu)  ||d||  lg(rg) alpha_du alpha_pr  ls
   0  0.0000000e+00 7.40e-01 2.84e-14  -1.0 0.00e+00    -  0.00e+00 0.00e+00   0
   1  1.4633984e+00 8.40e-01 1.93e+05  -1.0 1.27e+05    -  5.03e-01 6.47e-01h  1
   2  1.5450124e+00 7.89e-01 1.82e+05  -1.0 3.94e+04    -  8.37e-01 5.24e-02h  1
   3  1.5819122e+00 7.69e-01 1.77e+05  -1.0 1.81e+05    -  8.09e-01 2.60e-02h  1
   4  1.1645310e+01 6.07e-01 2.09e+04  -1.0 1.81e+05    -  8.11e-01 9.90e-01h  1
   5  1.3870517e+01 9.34e-02 1.76e+03  -1.0 2.05e+04    -  4.34e-01 9.90e-01h  1
   6  1.3916578e+01 3.69e-03 1.88e+04  -1.0 4.02e+02    -  9.29e-01 9.90e-01h  1
   7  1.3920821e+01 4.35e-05 1.75e+02  -1.0 3.64e+01    -  9.90e-01 9.90e-01h  1
   8  1.3917946e+01 1.27e-07 1.02e+02  -2.5 2.45e+01    -  9.97e-01 9.97e-01h  1
   9  1.3916447e+01 2.67e-08 4.60e+05  -5.7 1.30e+01    -  1.00e+00 9.77e-01h  1
iter    objective    inf_pr   inf_du lg(mu)  ||d||  lg(rg) alpha_du alpha_pr  ls
  10  1.3916447e+01 2.33e-08 7.62e+08  -5.7 1.50e-02    -  1.00e+00 1.25e-01h  4
  11  1.3916448e+01 2.87e-11 3.24e+03  -5.7 1.31e-02    -  1.00e+00 1.00e+00h  1
In iteration 11, 27 Slacks too small, adjusting variable bounds
  12  1.3916448e+01 5.74e-11 9.95e+08  -5.7 1.49e-07    -  1.00e+00 1.00e+00h  1
  13  1.3916448e+01 1.69e-11 3.09e-02  -5.7 2.91e-07    -  1.00e+00 1.00e+00h  1
  14  1.3916447e+01 2.52e-10 2.00e-07  -9.0 1.57e-02    -  1.00e+00 1.00e+00h  1

Number of Iterations....: 14

                                   (scaled)                 (unscaled)
Objective...............:   1.3916446583962465e+01    1.3916446583962465e+01
Dual infeasibility......:   2.0023435354232788e-07    2.0023435354232788e-07
Constraint violation....:   2.5171287276748444e-10    2.5171287276748444e-10
Complementarity.........:   9.1243186668423729e-10    9.1243186668423729e-10
Overall NLP error.......:   3.1414631678883574e-10    2.0023435354232788e-07


Number of objective function evaluations             = 18
Number of objective gradient evaluations             = 15
Number of equality constraint evaluations            = 18
Number of inequality constraint evaluations          = 0
Number of equality constraint Jacobian evaluations   = 15
Number of inequality constraint Jacobian evaluations = 0
Number of Lagrangian Hessian evaluations             = 14
Total CPU secs in IPOPT (w/o function evaluations)   =      0.031
Total CPU secs in NLP function evaluations           =      0.267

EXIT: Optimal Solution Found.
